NAME: rat195.tour
COMMENT: Best tour for rat195.tsp (2332.0)
TYPE: TOUR
DIMENSION: 195
TOUR_SECTION
171
170
157
158
146
145
144
132
131
118
119
120
121
122
123
124
125
126
127
114
113
112
111
110
109
108
107
106
105
92
93
94
95
96
97
98
99
100
101
102
87
86
88
89
76
75
74
73
72
85
84
83
82
81
80
79
66
67
68
69
70
71
58
57
56
55
54
53
40
41
42
43
44
30
31
32
33
34
21
20
19
18
17
16
29
28
27
14
15
1
2
3
4
5
6
7
8
9
10
11
12
13
26
25
24
23
22
35
36
37
38
39
52
51
50
49
48
47
46
45
59
60
61
62
63
64
65
78
77
90
91
104
103
117
116
115
128
129
130
142
143
156
155
154
141
140
139
138
137
136
135
133
134
147
148
149
150
151
152
153
166
165
164
163
162
161
160
159
172
173
174
175
176
177
178
179
180
167
168
169
181
182
195
194
193
192
191
190
189
188
187
186
185
184
183
-1
EOF